c File: flat50_3_0.col
c
c SOURCE: Joseph Culberson (joe@cs.ualberta.ca)
c DESCRIPTION: Quasi-random coloring problem
c              generated with flatness = 0
c                             probability = 0.139
c                             known coloring = 3
c                             random seed = 1484
c              Creation Date:  Tue Jun  9 12:10:28 1998
c Maximum degree = 7 Minimum degree = 0
c p edge 50 115
c cnf created by edge2cnf
p cnf 150 545
-1 -2 0
-1 -3 0
-2 -3 0
1 2 3 0
-4 -5 0
-4 -6 0
-5 -6 0
4 5 6 0
-7 -8 0
-7 -9 0
-8 -9 0
7 8 9 0
-10 -11 0
-10 -12 0
-11 -12 0
10 11 12 0
-13 -14 0
-13 -15 0
-14 -15 0
13 14 15 0
-16 -17 0
-16 -18 0
-17 -18 0
16 17 18 0
-19 -20 0
-19 -21 0
-20 -21 0
19 20 21 0
-22 -23 0
-22 -24 0
-23 -24 0
22 23 24 0
-25 -26 0
-25 -27 0
-26 -27 0
25 26 27 0
-28 -29 0
-28 -30 0
-29 -30 0
28 29 30 0
-31 -32 0
-31 -33 0
-32 -33 0
31 32 33 0
-34 -35 0
-34 -36 0
-35 -36 0
34 35 36 0
-37 -38 0
-37 -39 0
-38 -39 0
37 38 39 0
-40 -41 0
-40 -42 0
-41 -42 0
40 41 42 0
-43 -44 0
-43 -45 0
-44 -45 0
43 44 45 0
-46 -47 0
-46 -48 0
-47 -48 0
46 47 48 0
-49 -50 0
-49 -51 0
-50 -51 0
49 50 51 0
-52 -53 0
-52 -54 0
-53 -54 0
52 53 54 0
-55 -56 0
-55 -57 0
-56 -57 0
55 56 57 0
-58 -59 0
-58 -60 0
-59 -60 0
58 59 60 0
-61 -62 0
-61 -63 0
-62 -63 0
61 62 63 0
-64 -65 0
-64 -66 0
-65 -66 0
64 65 66 0
-67 -68 0
-67 -69 0
-68 -69 0
67 68 69 0
-70 -71 0
-70 -72 0
-71 -72 0
70 71 72 0
-73 -74 0
-73 -75 0
-74 -75 0
73 74 75 0
-76 -77 0
-76 -78 0
-77 -78 0
76 77 78 0
-79 -80 0
-79 -81 0
-80 -81 0
79 80 81 0
-82 -83 0
-82 -84 0
-83 -84 0
82 83 84 0
-85 -86 0
-85 -87 0
-86 -87 0
85 86 87 0
-88 -89 0
-88 -90 0
-89 -90 0
88 89 90 0
-91 -92 0
-91 -93 0
-92 -93 0
91 92 93 0
-94 -95 0
-94 -96 0
-95 -96 0
94 95 96 0
-97 -98 0
-97 -99 0
-98 -99 0
97 98 99 0
-100 -101 0
-100 -102 0
-101 -102 0
100 101 102 0
-103 -104 0
-103 -105 0
-104 -105 0
103 104 105 0
-106 -107 0
-106 -108 0
-107 -108 0
106 107 108 0
-109 -110 0
-109 -111 0
-110 -111 0
109 110 111 0
-112 -113 0
-112 -114 0
-113 -114 0
112 113 114 0
-115 -116 0
-115 -117 0
-116 -117 0
115 116 117 0
-118 -119 0
-118 -120 0
-119 -120 0
118 119 120 0
-121 -122 0
-121 -123 0
-122 -123 0
121 122 123 0
-124 -125 0
-124 -126 0
-125 -126 0
124 125 126 0
-127 -128 0
-127 -129 0
-128 -129 0
127 128 129 0
-130 -131 0
-130 -132 0
-131 -132 0
130 131 132 0
-133 -134 0
-133 -135 0
-134 -135 0
133 134 135 0
-136 -137 0
-136 -138 0
-137 -138 0
136 137 138 0
-139 -140 0
-139 -141 0
-140 -141 0
139 140 141 0
-142 -143 0
-142 -144 0
-143 -144 0
142 143 144 0
-145 -146 0
-145 -147 0
-146 -147 0
145 146 147 0
-148 -149 0
-148 -150 0
-149 -150 0
148 149 150 0
-52 -1 0
-53 -2 0
-54 -3 0
-55 -1 0
-56 -2 0
-57 -3 0
-79 -1 0
-80 -2 0
-81 -3 0
-88 -1 0
-89 -2 0
-90 -3 0
-106 -1 0
-107 -2 0
-108 -3 0
-109 -1 0
-110 -2 0
-111 -3 0
-118 -1 0
-119 -2 0
-120 -3 0
-82 -4 0
-83 -5 0
-84 -6 0
-85 -4 0
-86 -5 0
-87 -6 0
-112 -4 0
-113 -5 0
-114 -6 0
-115 -4 0
-116 -5 0
-117 -6 0
-124 -4 0
-125 -5 0
-126 -6 0
-139 -4 0
-140 -5 0
-141 -6 0
-91 -7 0
-92 -8 0
-93 -9 0
-97 -7 0
-98 -8 0
-99 -9 0
-100 -7 0
-101 -8 0
-102 -9 0
-133 -7 0
-134 -8 0
-135 -9 0
-145 -7 0
-146 -8 0
-147 -9 0
-130 -10 0
-131 -11 0
-132 -12 0
-142 -10 0
-143 -11 0
-144 -12 0
-145 -10 0
-146 -11 0
-147 -12 0
-61 -13 0
-62 -14 0
-63 -15 0
-79 -13 0
-80 -14 0
-81 -15 0
-88 -13 0
-89 -14 0
-90 -15 0
-94 -13 0
-95 -14 0
-96 -15 0
-106 -13 0
-107 -14 0
-108 -15 0
-127 -13 0
-128 -14 0
-129 -15 0
-133 -13 0
-134 -14 0
-135 -15 0
-76 -16 0
-77 -17 0
-78 -18 0
-79 -16 0
-80 -17 0
-81 -18 0
-103 -16 0
-104 -17 0
-105 -18 0
-106 -16 0
-107 -17 0
-108 -18 0
-139 -16 0
-140 -17 0
-141 -18 0
-52 -22 0
-53 -23 0
-54 -24 0
-76 -22 0
-77 -23 0
-78 -24 0
-136 -22 0
-137 -23 0
-138 -24 0
-61 -25 0
-62 -26 0
-63 -27 0
-70 -25 0
-71 -26 0
-72 -27 0
-106 -25 0
-107 -26 0
-108 -27 0
-118 -25 0
-119 -26 0
-120 -27 0
-136 -25 0
-137 -26 0
-138 -27 0
-52 -28 0
-53 -29 0
-54 -30 0
-64 -28 0
-65 -29 0
-66 -30 0
-115 -28 0
-116 -29 0
-117 -30 0
-121 -28 0
-122 -29 0
-123 -30 0
-136 -28 0
-137 -29 0
-138 -30 0
-142 -28 0
-143 -29 0
-144 -30 0
-52 -31 0
-53 -32 0
-54 -33 0
-67 -31 0
-68 -32 0
-69 -33 0
-73 -31 0
-74 -32 0
-75 -33 0
-82 -31 0
-83 -32 0
-84 -33 0
-118 -31 0
-119 -32 0
-120 -33 0
-79 -34 0
-80 -35 0
-81 -36 0
-85 -34 0
-86 -35 0
-87 -36 0
-88 -34 0
-89 -35 0
-90 -36 0
-100 -34 0
-101 -35 0
-102 -36 0
-142 -34 0
-143 -35 0
-144 -36 0
-67 -37 0
-68 -38 0
-69 -39 0
-73 -37 0
-74 -38 0
-75 -39 0
-88 -37 0
-89 -38 0
-90 -39 0
-109 -37 0
-110 -38 0
-111 -39 0
-124 -37 0
-125 -38 0
-126 -39 0
-148 -37 0
-149 -38 0
-150 -39 0
-94 -40 0
-95 -41 0
-96 -42 0
-124 -40 0
-125 -41 0
-126 -42 0
-85 -43 0
-86 -44 0
-87 -45 0
-121 -43 0
-122 -44 0
-123 -45 0
-64 -46 0
-65 -47 0
-66 -48 0
-85 -46 0
-86 -47 0
-87 -48 0
-121 -46 0
-122 -47 0
-123 -48 0
-70 -49 0
-71 -50 0
-72 -51 0
-76 -49 0
-77 -50 0
-78 -51 0
-91 -49 0
-92 -50 0
-93 -51 0
-94 -49 0
-95 -50 0
-96 -51 0
-127 -49 0
-128 -50 0
-129 -51 0
-139 -49 0
-140 -50 0
-141 -51 0
-148 -49 0
-149 -50 0
-150 -51 0
-115 -52 0
-116 -53 0
-117 -54 0
-121 -52 0
-122 -53 0
-123 -54 0
-106 -55 0
-107 -56 0
-108 -57 0
-112 -55 0
-113 -56 0
-114 -57 0
-130 -55 0
-131 -56 0
-132 -57 0
-130 -58 0
-131 -59 0
-132 -60 0
-133 -58 0
-134 -59 0
-135 -60 0
-148 -58 0
-149 -59 0
-150 -60 0
-103 -61 0
-104 -62 0
-105 -63 0
-139 -64 0
-140 -65 0
-141 -66 0
-124 -67 0
-125 -68 0
-126 -69 0
-130 -67 0
-131 -68 0
-132 -69 0
-142 -67 0
-143 -68 0
-144 -69 0
-109 -70 0
-110 -71 0
-111 -72 0
-133 -70 0
-134 -71 0
-135 -72 0
-103 -73 0
-104 -74 0
-105 -75 0
-121 -73 0
-122 -74 0
-123 -75 0
-148 -73 0
-149 -74 0
-150 -75 0
-103 -76 0
-104 -77 0
-105 -78 0
-109 -76 0
-110 -77 0
-111 -78 0
-145 -76 0
-146 -77 0
-147 -78 0
-118 -79 0
-119 -80 0
-120 -81 0
-130 -79 0
-131 -80 0
-132 -81 0
-133 -79 0
-134 -80 0
-135 -81 0
-133 -82 0
-134 -83 0
-135 -84 0
-106 -85 0
-107 -86 0
-108 -87 0
-118 -85 0
-119 -86 0
-120 -87 0
-148 -88 0
-149 -89 0
-150 -90 0
-112 -91 0
-113 -92 0
-114 -93 0
-115 -91 0
-116 -92 0
-117 -93 0
-127 -91 0
-128 -92 0
-129 -93 0
-106 -94 0
-107 -95 0
-108 -96 0
-124 -94 0
-125 -95 0
-126 -96 0
-139 -94 0
-140 -95 0
-141 -96 0
-142 -94 0
-143 -95 0
-144 -96 0
-124 -97 0
-125 -98 0
-126 -99 0
-136 -97 0
-137 -98 0
-138 -99 0
-148 -100 0
-149 -101 0
-150 -102 0
